35 35
22
3 3 32 32
3 4 8 0
3 5 25 0
3 6 32 0
3 7 32 16
3 8 25 5
3 9 32 23
3 10 32 6
3 12 0 23
3 19 8 4
3 22 25 13
4 3 0 0
4 4 28 0
4 5 7 30
4 6 4 0
4 7 7 23
4 8 28 27
4 12 3 23
4 17 4 6
4 20 0 3
4 23 28 4
14 35 11 0
% time elapsed: 140.31 s
% time elapsed: 140.31 s
%%%mzn-stat: initTime=0.000389
%%%mzn-stat: solveTime=140.207
%%%mzn-stat: solutions=89
%%%mzn-stat: variables=45
%%%mzn-stat: propagators=27
%%%mzn-stat: propagations=74045201
%%%mzn-stat: nodes=16221164
%%%mzn-stat: failures=8106317
%%%mzn-stat: restarts=491
%%%mzn-stat: peakDepth=70
%%%mzn-stat-end
